81
129
472
83
58
458
121
289
297
362
236
426
290
388
263
13
431
283
50
192
155
290
56
190
255
336
220
373
468
142
99
381
122
371
395
340
446
137
2
137
124
78
180
185
453
62
290
200
92
107
425
469
430
252
318
224
60
323
221
189
160
329
263
358
23
183
30
303
422
477
460
11
258
436
35
334
235
354
191
58
17
305
24
322
373
78
433
126
82
492
233
225
67
225
433
122
412
235
382
31
